NAME: random-65-2242
TYPE: TSP
COMMENT: size=65 seed=2242
DIMENSION: 132
EDGE_WEIGHT_TYPE: EUC_2D
NODE_COORD_SECTION
+0 294 40
-0 294 40
+1 542 794
-1 713 742
+2 632 113
-2 707 822
+3 703 345
-3 861 737
+4 46 419
-4 507 701
+5 734 165
-5 538 352
+6 161 679
-6 676 774
+7 468 986
-7 594 816
+8 468 32
-8 470 641
+9 472 393
-9 131 789
+10 223 930
-10 966 529
+11 750 476
-11 24 21
+12 631 628
-12 696 89
+13 485 896
-13 821 249
+14 778 668
-14 674 181
+15 608 415
-15 279 203
+16 678 197
-16 822 395
+17 948 31
-17 182 335
+18 883 90
-18 341 461
+19 723 248
-19 421 176
+20 645 941
-20 573 921
+21 52 273
-21 860 746
+22 862 292
-22 762 924
+23 668 394
-23 709 260
+24 91 312
-24 855 491
+25 254 371
-25 761 223
+26 586 829
-26 528 196
+27 42 69
-27 151 883
+28 69 291
-28 870 227
+29 738 586
-29 762 780
+30 932 889
-30 866 520
+31 770 879
-31 352 821
+32 417 787
-32 728 63
+33 805 215
-33 606 439
+34 550 794
-34 930 977
+35 799 228
-35 434 990
+36 84 528
-36 781 216
+37 515 987
-37 344 78
+38 536 989
-38 263 696
+39 190 300
-39 739 892
+40 681 456
-40 562 955
+41 835 161
-41 708 502
+42 344 635
-42 474 53
+43 564 735
-43 375 887
+44 251 84
-44 281 234
+45 569 456
-45 813 502
+46 154 316
-46 651 231
+47 446 930
-47 616 558
+48 8 126
-48 232 936
+49 760 216
-49 670 128
+50 80 12
-50 145 899
+51 988 974
-51 834 995
+52 441 658
-52 902 19
+53 708 328
-53 848 274
+54 171 386
-54 848 76
+55 128 537
-55 204 330
+56 61 126
-56 596 839
+57 343 257
-57 197 755
+58 55 264
-58 887 892
+59 993 277
-59 277 107
+60 88 815
-60 854 676
+61 800 806
-61 312 568
+62 47 595
-62 601 749
+63 285 664
-63 937 866
+64 216 227
-64 882 263
+65 315 71
-65 661 159
PRECEDENCE_SECTION
+0 -0
+1 -1
+2 -2
+3 -3
+4 -4
+5 -5
+6 -6
+7 -7
+8 -8
+9 -9
+10 -10
+11 -11
+12 -12
+13 -13
+14 -14
+15 -15
+16 -16
+17 -17
+18 -18
+19 -19
+20 -20
+21 -21
+22 -22
+23 -23
+24 -24
+25 -25
+26 -26
+27 -27
+28 -28
+29 -29
+30 -30
+31 -31
+32 -32
+33 -33
+34 -34
+35 -35
+36 -36
+37 -37
+38 -38
+39 -39
+40 -40
+41 -41
+42 -42
+43 -43
+44 -44
+45 -45
+46 -46
+47 -47
+48 -48
+49 -49
+50 -50
+51 -51
+52 -52
+53 -53
+54 -54
+55 -55
+56 -56
+57 -57
+58 -58
+59 -59
+60 -60
+61 -61
+62 -62
+63 -63
+64 -64
+65 -65
EOF
